8	
0	0	0	0	0	0	0	1	1	
0	0	0	0	0	0	0	2	2	
0	0	0	0	0	0	0	3	3	
0	0	0	0	0	0	0	0	0	
0	0	0	0	0	0	0	0	0	

9	
0	0	0	0	0	0	0	0	0	
0	0	0	0	0	0	0	1	1	
0	0	0	0	0	0	0	2	2	
0	0	0	0	0	0	0	3	3	
0	0	0	0	0	0	0	0	0	

10	
0	0	0	0	0	0	0	0	0	
0	0	0	0	0	0	0	0	0	
0	0	0	0	0	0	0	1	1	
0	0	0	0	0	0	0	2	2	
0	0	0	0	0	0	0	3	3	

11	
0	0	0	0	0	0	0	3	3	
0	0	0	0	0	0	0	0	0	
0	0	0	0	0	0	0	0	0	
0	0	0	0	0	0	0	1	1	
0	0	0	0	0	0	0	2	2	

12	
0	0	0	0	0	0	0	0	0	
0	0	0	0	0	0	0	0	0	
0	0	0	0	0	0	0	0	0	
0	0	0	0	0	0	0	0	0	
0	0	0	0	0	0	0	1	1	

13	
0	0	0	0	0	0	0	2	2	
0	0	0	0	0	0	0	0	0	
0	0	0	0	0	0	0	0	0	
0	0	0	0	0	0	0	0	0	
0	0	0	0	0	0	0	0	0	

14	
0	0	0	0	0	0	0	0	0	
0	0	0	0	0	0	0	3	3	
0	0	0	0	0	0	0	0	0	
0	0	0	0	0	0	0	0	0	
0	0	0	0	0	0	0	0	0	

